39 39 26 39 26 39 39 26 26 39 26 39 39 39 39 39 39 26 26 39 39 39 26 26 26 39 26 26 26 39 26 39 39 26 39 39 39 26 39 39 39 39 26 26 26 26 39 26 26 39 39 39 26 39 39 39 26 39 39 39 39 39 26 26 39 39 39 26 39 26 39 26 39 39 39 39 39 26 39 39 26 39 39 26 26 26 39 39 26 26 26 39 39 26 39 26 26 26 26 39 26 39 26 39 39 39 26 26 39 26 26 39 39 39 26 39 39 39 26 39 26 26 26 39 39 39 26 39 39 26 26 39 26 26 26 39 39 39 39 39 39 39 26 26 26 26 39 26 26 26 39 26 26 26 39 39 39 39 26 39 26 39 26 26 39 39 39 39 26 26 26 39 26 26 39 26 39 26 26 39 26 26 39 39 26 26 26 39 26 39 26 26 26 39 26 39 26 39 26 26 39 26 39 39 39 26 26 26 26 26 39 39 26 26 26 26 26 26 26 26 39 26 26 39 39 26 39 39 39 39 39 39 26 26 26 39 26 26 39 39 39 26 26 39 26 26 26 26 26 26 39 26 26 39 39 26 26 26 39 39 26 39 26 26 39 39 39 26 39 26 39 26 26 39 26 26 39 26 26 39 26 39 39 26 39 39 26 39 39 26 26 39 39 39 39 26 26 26 26 39 26 39 26 26 26 26 26 39 26 39 39 26 26 26 26 39 39 39 26 39 39 39 26 26 26 26 26 26 26 39 39 39 26 39 39 39 39 26 26 39 39 39 39 39 26 26 39 39 39 39 26 26 26 39 26 26 39 26 26 39 39 26 26 26 39 26 39 39 26 39 26 39 39 26 26 39 26 39 26 39 39 39 39 39 26 39 26 39 39 26 26 39 26 39 39 26 39 26 39 39 39 39 26 26 39 26 39 39 26 26 26 39 39 39 26 39 26 26 26 26 39 26 39 39 39 26 39 26 26 26 39 39 26 39 26 39 26 39 39 26 39 39 39 26 39 39 39 39 26 39 39 39 26 26 26 39 26 26 26 26 26 39 26 26 39 26 26 39 39 39 39 39 26 26 39 39 39 39 39 39 26 26 26 26 39 39 26 39 39 26 26 39 39 26 26 26 26 26 39 39 39 26 26 39 26 26 39 26 39 26 39 39 26 26 26 39 39 26 39 26 26 39 39 39 39 39 26 39 39 39 26 26 26 39 26 26 39 39 26 26 39 26 39 39 26 39 39 39 39 26 39 39 39 26 39 26 26 39 39 39 26 39 26 26 26 26 39 39 39 39 39 26 39 39 39 39 26 26 26 26 26 39 39 39 26 26 39 26 39 26 39 26 26 39 26 26 39 39 26 26 39 39 26 26 26 26 26 39 26 26 39 39 26 26 26 26 39 26 26 26 26 39 26 26 39 39 39 26 26 39 39 39 26 39 26 39 39 26 26 26 26 39 39 26 39 39 26 26 39 26 39 26 26 39 26 39 26 39 39 39 26 26 26 39 26 26 26 39 26 26 39 39 39 26 39 26 26 26 39 39 26 26 39 26 39 26 39 26 39 39 39 26 39 39 39 39 26 39 39 26 39 26 39 26 39 39 26 39 39 39 26 39 39 26 26 39 26 39 39 39 26 26 39 26 39 26 39 39 39 26 26 26 39 39 26 26 26 39 39 39 26 39 39 26 39 39 39 39 26 26 39 39 26 26 39 39 39 26 39 26 39 39 39 26 26 39 26 39 26 39 26 39 26 39 39 26 26 26 39 39 26 26 26 26 39 39 39 26 39 26 26 26 39 39 26 26 39 26 39 39 39 39 26 26 39 39 26 39 39 39 26 39 26 26 39 39 39 39 39 39 39 39 39 39 39 26 39 26 26 26 39 26 39 26 26 26 39 26 26 39 39 26 26 39 39 26 26 26 39 39 39 26 39 39 39 26 39 26 26 39 26 39 39 26 39 39 26 39 39 26 26 39 39 26 26 26 26 39 26 39 26 26 26 39 39 39 39 26 26 39 39 26 39 39 26 26 26 39 39 26 39 39 39 26 26 39 26 26 26 39 26 39 39 26 26 26 39 26 26 39 39 39 26 26 26 26 39 39 39 26 39 39 26 26 39 26 39 26 26 26 39 26 39 26 26 39 26 26 39 26 39 39 39 39 39 26 26 26 39 39 39 26 26 39 26 26 39 39 26 39 39 39 26 26 39 26 26 39 26 39 39 26 26 26 39 26 26 39 26 39 39 39 39 39 26 39 39 39 39 39 